certificates/rado_a14_c270_N39.cnf
c Rad2 upper bound instance: x1 + 14*x2 - x3 = 270, interval [1,39]
p cnf 39 216
1 11 20 0
-1 -11 -20 0
1 21 25 0
-1 -21 -25 0
1 22 39 0
-1 -22 -39 0
2 12 20 0
-2 -12 -20 0
2 21 26 0
-2 -21 -26 0
3 13 20 0
-3 -13 -20 0
3 21 27 0
-3 -21 -27 0
4 14 20 0
-4 -14 -20 0
4 21 28 0
-4 -21 -28 0
1 5 19 0
-1 -5 -19 0
5 15 20 0
-5 -15 -20 0
5 21 29 0
-5 -21 -29 0
2 6 19 0
-2 -6 -19 0
6 16 20 0
-6 -16 -20 0
6 21 30 0
-6 -21 -30 0
3 7 19 0
-3 -7 -19 0
7 17 20 0
-7 -17 -20 0
7 21 31 0
-7 -21 -31 0
4 8 19 0
-4 -8 -19 0
8 18 20 0
-8 -18 -20 0
8 21 32 0
-8 -21 -32 0
5 9 19 0
-5 -9 -19 0
9 19 20 0
-9 -19 -20 0
9 21 33 0
-9 -21 -33 0
6 10 19 0
-6 -10 -19 0
10 20 0
-10 -20 0
10 21 34 0
-10 -21 -34 0
7 11 19 0
-7 -11 -19 0
11 20 21 0
-11 -20 -21 0
11 21 35 0
-11 -21 -35 0
8 12 19 0
-8 -12 -19 0
12 20 22 0
-12 -20 -22 0
12 21 36 0
-12 -21 -36 0
9 13 19 0
-9 -13 -19 0
13 20 23 0
-13 -20 -23 0
13 21 37 0
-13 -21 -37 0
10 14 19 0
-10 -14 -19 0
14 20 24 0
-14 -20 -24 0
14 21 38 0
-14 -21 -38 0
11 15 19 0
-11 -15 -19 0
15 20 25 0
-15 -20 -25 0
15 21 39 0
-15 -21 -39 0
12 16 19 0
-12 -16 -19 0
16 20 26 0
-16 -20 -26 0
13 17 19 0
-13 -17 -19 0
17 20 27 0
-17 -20 -27 0
14 18 19 0
-14 -18 -19 0
18 20 28 0
-18 -20 -28 0
1 18 19 0
-1 -18 -19 0
15 19 0
-15 -19 0
19 20 29 0
-19 -20 -29 0
2 18 20 0
-2 -18 -20 0
16 19 20 0
-16 -19 -20 0
20 30 0
-20 -30 0
3 18 21 0
-3 -18 -21 0
17 19 21 0
-17 -19 -21 0
20 21 31 0
-20 -21 -31 0
4 18 22 0
-4 -18 -22 0
18 19 22 0
-18 -19 -22 0
20 22 32 0
-20 -22 -32 0
5 18 23 0
-5 -18 -23 0
19 23 0
-19 -23 0
20 23 33 0
-20 -23 -33 0
6 18 24 0
-6 -18 -24 0
19 20 24 0
-19 -20 -24 0
20 24 34 0
-20 -24 -34 0
7 18 25 0
-7 -18 -25 0
19 21 25 0
-19 -21 -25 0
20 25 35 0
-20 -25 -35 0
8 18 26 0
-8 -18 -26 0
19 22 26 0
-19 -22 -26 0
20 26 36 0
-20 -26 -36 0
9 18 27 0
-9 -18 -27 0
19 23 27 0
-19 -23 -27 0
20 27 37 0
-20 -27 -37 0
10 18 28 0
-10 -18 -28 0
19 24 28 0
-19 -24 -28 0
20 28 38 0
-20 -28 -38 0
11 18 29 0
-11 -18 -29 0
19 25 29 0
-19 -25 -29 0
20 29 39 0
-20 -29 -39 0
12 18 30 0
-12 -18 -30 0
19 26 30 0
-19 -26 -30 0
13 18 31 0
-13 -18 -31 0
19 27 31 0
-19 -27 -31 0
14 18 32 0
-14 -18 -32 0
19 28 32 0
-19 -28 -32 0
1 17 33 0
-1 -17 -33 0
15 18 33 0
-15 -18 -33 0
19 29 33 0
-19 -29 -33 0
2 17 34 0
-2 -17 -34 0
16 18 34 0
-16 -18 -34 0
19 30 34 0
-19 -30 -34 0
3 17 35 0
-3 -17 -35 0
17 18 35 0
-17 -18 -35 0
19 31 35 0
-19 -31 -35 0
4 17 36 0
-4 -17 -36 0
18 36 0
-18 -36 0
19 32 36 0
-19 -32 -36 0
5 17 37 0
-5 -17 -37 0
18 19 37 0
-18 -19 -37 0
19 33 37 0
-19 -33 -37 0
6 17 38 0
-6 -17 -38 0
18 20 38 0
-18 -20 -38 0
19 34 38 0
-19 -34 -38 0
7 17 39 0
-7 -17 -39 0
18 21 39 0
-18 -21 -39 0
19 35 39 0
-19 -35 -39 0
