certificates/rado_a14_c270_N39.drat
19 18 -39 0
18 -37 -39 0
-37 -38 -39 0
19 37 0
-18 -38 -39 0
-38 -39 0
d -37 -38 -39 0
18 -39 0
d 18 -37 -39 0
d 19 18 -39 0
-39 0
19 28 -20 38 0
-19 -18 0
d -1 -19 -18 0
-18 0
36 0
21 0
-12 0
30 0
-20 0
-6 0
10 0
29 0
2 0
38 0
8 0
28 0
22 0
16 0
24 0
-34 0
-5 0
-26 0
-14 0
-32 0
-4 0
-19 0
1 0
9 0
15 0
23 0
0
